data/hard_1.dzn
num_nodi = 8;
ufficio_postale = 8;
dim_borsa = 16;
max_step = 32;
elenco_lettere = [1, 5, 16, 14, 11, 1, 5, 0];
distanze = [|0, 5, 18, 23, 25, 6, 18, 9
|4, 0, 21, 15, 13, 12, 9, 20
|1, 15, 0, 5, 16, 12, 8, 24
|10, 13, 13, 0, 19, 12, 5, 5
|10, 2, 10, 3, 0, 25, 21, 21
|1, 4, 11, 17, 11, 0, 12, 8
|2, 8, 17, 8, 21, 4, 0, 6
|24, 11, 4, 9, 19, 18, 8, 0
|];
