data/hard_1.lp
node(1..8).

ufficio_postale(8).

dim_borsa(16).

time(1..32).

lettere(1,1).
lettere(2,5).
lettere(3,16).
lettere(4,14).
lettere(5,11).
lettere(6,1).
lettere(7,5).
lettere(8,0).

costo_arco(1, 1, 0).
costo_arco(1, 2, 5).
costo_arco(1, 3, 18).
costo_arco(1, 4, 23).
costo_arco(1, 5, 25).
costo_arco(1, 6, 6).
costo_arco(1, 7, 18).
costo_arco(1, 8, 9).

costo_arco(2, 1, 4).
costo_arco(2, 2, 0).
costo_arco(2, 3, 21).
costo_arco(2, 4, 15).
costo_arco(2, 5, 13).
costo_arco(2, 6, 12).
costo_arco(2, 7, 9).
costo_arco(2, 8, 20).

costo_arco(3, 1, 1).
costo_arco(3, 2, 15).
costo_arco(3, 3, 0).
costo_arco(3, 4, 5).
costo_arco(3, 5, 16).
costo_arco(3, 6, 12).
costo_arco(3, 7, 8).
costo_arco(3, 8, 24).

costo_arco(4, 1, 10).
costo_arco(4, 2, 13).
costo_arco(4, 3, 13).
costo_arco(4, 4, 0).
costo_arco(4, 5, 19).
costo_arco(4, 6, 12).
costo_arco(4, 7, 5).
costo_arco(4, 8, 5).

costo_arco(5, 1, 10).
costo_arco(5, 2, 2).
costo_arco(5, 3, 10).
costo_arco(5, 4, 3).
costo_arco(5, 5, 0).
costo_arco(5, 6, 25).
costo_arco(5, 7, 21).
costo_arco(5, 8, 21).

costo_arco(6, 1, 1).
costo_arco(6, 2, 4).
costo_arco(6, 3, 11).
costo_arco(6, 4, 17).
costo_arco(6, 5, 11).
costo_arco(6, 6, 0).
costo_arco(6, 7, 12).
costo_arco(6, 8, 8).

costo_arco(7, 1, 2).
costo_arco(7, 2, 8).
costo_arco(7, 3, 17).
costo_arco(7, 4, 8).
costo_arco(7, 5, 21).
costo_arco(7, 6, 4).
costo_arco(7, 7, 0).
costo_arco(7, 8, 6).

costo_arco(8, 1, 24).
costo_arco(8, 2, 11).
costo_arco(8, 3, 4).
costo_arco(8, 4, 9).
costo_arco(8, 5, 19).
costo_arco(8, 6, 18).
costo_arco(8, 7, 8).
costo_arco(8, 8, 0).

